\ Model Sudoku Problem
\ LP format - for model browsing. Use MPS format to capture full model detail.
Minimize
 
Subject To
 R0: x_1_1_1 + x_2_1_1 + x_3_1_1 + x_4_1_1 + x_5_1_1 + x_6_1_1 + x_7_1_1
   + x_8_1_1 + x_9_1_1 = 1
 R1: x_1_1_2 + x_2_1_2 + x_3_1_2 + x_4_1_2 + x_5_1_2 + x_6_1_2 + x_7_1_2
   + x_8_1_2 + x_9_1_2 = 1
 R2: x_1_1_3 + x_2_1_3 + x_3_1_3 + x_4_1_3 + x_5_1_3 + x_6_1_3 + x_7_1_3
   + x_8_1_3 + x_9_1_3 = 1
 R3: x_1_1_4 + x_2_1_4 + x_3_1_4 + x_4_1_4 + x_5_1_4 + x_6_1_4 + x_7_1_4
   + x_8_1_4 + x_9_1_4 = 1
 R4: x_1_1_5 + x_2_1_5 + x_3_1_5 + x_4_1_5 + x_5_1_5 + x_6_1_5 + x_7_1_5
   + x_8_1_5 + x_9_1_5 = 1
 R5: x_1_1_6 + x_2_1_6 + x_3_1_6 + x_4_1_6 + x_5_1_6 + x_6_1_6 + x_7_1_6
   + x_8_1_6 + x_9_1_6 = 1
 R6: x_1_1_7 + x_2_1_7 + x_3_1_7 + x_4_1_7 + x_5_1_7 + x_6_1_7 + x_7_1_7
   + x_8_1_7 + x_9_1_7 = 1
 R7: x_1_1_8 + x_2_1_8 + x_3_1_8 + x_4_1_8 + x_5_1_8 + x_6_1_8 + x_7_1_8
   + x_8_1_8 + x_9_1_8 = 1
 R8: x_1_1_9 + x_2_1_9 + x_3_1_9 + x_4_1_9 + x_5_1_9 + x_6_1_9 + x_7_1_9
   + x_8_1_9 + x_9_1_9 = 1
 R9: x_1_2_1 + x_2_2_1 + x_3_2_1 + x_4_2_1 + x_5_2_1 + x_6_2_1 + x_7_2_1
   + x_8_2_1 + x_9_2_1 = 1
 R10: x_1_2_2 + x_2_2_2 + x_3_2_2 + x_4_2_2 + x_5_2_2 + x_6_2_2 + x_7_2_2
   + x_8_2_2 + x_9_2_2 = 1
 R11: x_1_2_3 + x_2_2_3 + x_3_2_3 + x_4_2_3 + x_5_2_3 + x_6_2_3 + x_7_2_3
   + x_8_2_3 + x_9_2_3 = 1
 R12: x_1_2_4 + x_2_2_4 + x_3_2_4 + x_4_2_4 + x_5_2_4 + x_6_2_4 + x_7_2_4
   + x_8_2_4 + x_9_2_4 = 1
 R13: x_1_2_5 + x_2_2_5 + x_3_2_5 + x_4_2_5 + x_5_2_5 + x_6_2_5 + x_7_2_5
   + x_8_2_5 + x_9_2_5 = 1
 R14: x_1_2_6 + x_2_2_6 + x_3_2_6 + x_4_2_6 + x_5_2_6 + x_6_2_6 + x_7_2_6
   + x_8_2_6 + x_9_2_6 = 1
 R15: x_1_2_7 + x_2_2_7 + x_3_2_7 + x_4_2_7 + x_5_2_7 + x_6_2_7 + x_7_2_7
   + x_8_2_7 + x_9_2_7 = 1
 R16: x_1_2_8 + x_2_2_8 + x_3_2_8 + x_4_2_8 + x_5_2_8 + x_6_2_8 + x_7_2_8
   + x_8_2_8 + x_9_2_8 = 1
 R17: x_1_2_9 + x_2_2_9 + x_3_2_9 + x_4_2_9 + x_5_2_9 + x_6_2_9 + x_7_2_9
   + x_8_2_9 + x_9_2_9 = 1
 R18: x_1_3_1 + x_2_3_1 + x_3_3_1 + x_4_3_1 + x_5_3_1 + x_6_3_1 + x_7_3_1
   + x_8_3_1 + x_9_3_1 = 1
 R19: x_1_3_2 + x_2_3_2 + x_3_3_2 + x_4_3_2 + x_5_3_2 + x_6_3_2 + x_7_3_2
   + x_8_3_2 + x_9_3_2 = 1
 R20: x_1_3_3 + x_2_3_3 + x_3_3_3 + x_4_3_3 + x_5_3_3 + x_6_3_3 + x_7_3_3
   + x_8_3_3 + x_9_3_3 = 1
 R21: x_1_3_4 + x_2_3_4 + x_3_3_4 + x_4_3_4 + x_5_3_4 + x_6_3_4 + x_7_3_4
   + x_8_3_4 + x_9_3_4 = 1
 R22: x_1_3_5 + x_2_3_5 + x_3_3_5 + x_4_3_5 + x_5_3_5 + x_6_3_5 + x_7_3_5
   + x_8_3_5 + x_9_3_5 = 1
 R23: x_1_3_6 + x_2_3_6 + x_3_3_6 + x_4_3_6 + x_5_3_6 + x_6_3_6 + x_7_3_6
   + x_8_3_6 + x_9_3_6 = 1
 R24: x_1_3_7 + x_2_3_7 + x_3_3_7 + x_4_3_7 + x_5_3_7 + x_6_3_7 + x_7_3_7
   + x_8_3_7 + x_9_3_7 = 1
 R25: x_1_3_8 + x_2_3_8 + x_3_3_8 + x_4_3_8 + x_5_3_8 + x_6_3_8 + x_7_3_8
   + x_8_3_8 + x_9_3_8 = 1
 R26: x_1_3_9 + x_2_3_9 + x_3_3_9 + x_4_3_9 + x_5_3_9 + x_6_3_9 + x_7_3_9
   + x_8_3_9 + x_9_3_9 = 1
 R27: x_1_4_1 + x_2_4_1 + x_3_4_1 + x_4_4_1 + x_5_4_1 + x_6_4_1 + x_7_4_1
   + x_8_4_1 + x_9_4_1 = 1
 R28: x_1_4_2 + x_2_4_2 + x_3_4_2 + x_4_4_2 + x_5_4_2 + x_6_4_2 + x_7_4_2
   + x_8_4_2 + x_9_4_2 = 1
 R29: x_1_4_3 + x_2_4_3 + x_3_4_3 + x_4_4_3 + x_5_4_3 + x_6_4_3 + x_7_4_3
   + x_8_4_3 + x_9_4_3 = 1
 R30: x_1_4_4 + x_2_4_4 + x_3_4_4 + x_4_4_4 + x_5_4_4 + x_6_4_4 + x_7_4_4
   + x_8_4_4 + x_9_4_4 = 1
 R31: x_1_4_5 + x_2_4_5 + x_3_4_5 + x_4_4_5 + x_5_4_5 + x_6_4_5 + x_7_4_5
   + x_8_4_5 + x_9_4_5 = 1
 R32: x_1_4_6 + x_2_4_6 + x_3_4_6 + x_4_4_6 + x_5_4_6 + x_6_4_6 + x_7_4_6
   + x_8_4_6 + x_9_4_6 = 1
 R33: x_1_4_7 + x_2_4_7 + x_3_4_7 + x_4_4_7 + x_5_4_7 + x_6_4_7 + x_7_4_7
   + x_8_4_7 + x_9_4_7 = 1
 R34: x_1_4_8 + x_2_4_8 + x_3_4_8 + x_4_4_8 + x_5_4_8 + x_6_4_8 + x_7_4_8
   + x_8_4_8 + x_9_4_8 = 1
 R35: x_1_4_9 + x_2_4_9 + x_3_4_9 + x_4_4_9 + x_5_4_9 + x_6_4_9 + x_7_4_9
   + x_8_4_9 + x_9_4_9 = 1
 R36: x_1_5_1 + x_2_5_1 + x_3_5_1 + x_4_5_1 + x_5_5_1 + x_6_5_1 + x_7_5_1
   + x_8_5_1 + x_9_5_1 = 1
 R37: x_1_5_2 + x_2_5_2 + x_3_5_2 + x_4_5_2 + x_5_5_2 + x_6_5_2 + x_7_5_2
   + x_8_5_2 + x_9_5_2 = 1
 R38: x_1_5_3 + x_2_5_3 + x_3_5_3 + x_4_5_3 + x_5_5_3 + x_6_5_3 + x_7_5_3
   + x_8_5_3 + x_9_5_3 = 1
 R39: x_1_5_4 + x_2_5_4 + x_3_5_4 + x_4_5_4 + x_5_5_4 + x_6_5_4 + x_7_5_4
   + x_8_5_4 + x_9_5_4 = 1
 R40: x_1_5_5 + x_2_5_5 + x_3_5_5 + x_4_5_5 + x_5_5_5 + x_6_5_5 + x_7_5_5
   + x_8_5_5 + x_9_5_5 = 1
 R41: x_1_5_6 + x_2_5_6 + x_3_5_6 + x_4_5_6 + x_5_5_6 + x_6_5_6 + x_7_5_6
   + x_8_5_6 + x_9_5_6 = 1
 R42: x_1_5_7 + x_2_5_7 + x_3_5_7 + x_4_5_7 + x_5_5_7 + x_6_5_7 + x_7_5_7
   + x_8_5_7 + x_9_5_7 = 1
 R43: x_1_5_8 + x_2_5_8 + x_3_5_8 + x_4_5_8 + x_5_5_8 + x_6_5_8 + x_7_5_8
   + x_8_5_8 + x_9_5_8 = 1
 R44: x_1_5_9 + x_2_5_9 + x_3_5_9 + x_4_5_9 + x_5_5_9 + x_6_5_9 + x_7_5_9
   + x_8_5_9 + x_9_5_9 = 1
 R45: x_1_6_1 + x_2_6_1 + x_3_6_1 + x_4_6_1 + x_5_6_1 + x_6_6_1 + x_7_6_1
   + x_8_6_1 + x_9_6_1 = 1
 R46: x_1_6_2 + x_2_6_2 + x_3_6_2 + x_4_6_2 + x_5_6_2 + x_6_6_2 + x_7_6_2
   + x_8_6_2 + x_9_6_2 = 1
 R47: x_1_6_3 + x_2_6_3 + x_3_6_3 + x_4_6_3 + x_5_6_3 + x_6_6_3 + x_7_6_3
   + x_8_6_3 + x_9_6_3 = 1
 R48: x_1_6_4 + x_2_6_4 + x_3_6_4 + x_4_6_4 + x_5_6_4 + x_6_6_4 + x_7_6_4
   + x_8_6_4 + x_9_6_4 = 1
 R49: x_1_6_5 + x_2_6_5 + x_3_6_5 + x_4_6_5 + x_5_6_5 + x_6_6_5 + x_7_6_5
   + x_8_6_5 + x_9_6_5 = 1
 R50: x_1_6_6 + x_2_6_6 + x_3_6_6 + x_4_6_6 + x_5_6_6 + x_6_6_6 + x_7_6_6
   + x_8_6_6 + x_9_6_6 = 1
 R51: x_1_6_7 + x_2_6_7 + x_3_6_7 + x_4_6_7 + x_5_6_7 + x_6_6_7 + x_7_6_7
   + x_8_6_7 + x_9_6_7 = 1
 R52: x_1_6_8 + x_2_6_8 + x_3_6_8 + x_4_6_8 + x_5_6_8 + x_6_6_8 + x_7_6_8
   + x_8_6_8 + x_9_6_8 = 1
 R53: x_1_6_9 + x_2_6_9 + x_3_6_9 + x_4_6_9 + x_5_6_9 + x_6_6_9 + x_7_6_9
   + x_8_6_9 + x_9_6_9 = 1
 R54: x_1_7_1 + x_2_7_1 + x_3_7_1 + x_4_7_1 + x_5_7_1 + x_6_7_1 + x_7_7_1
   + x_8_7_1 + x_9_7_1 = 1
 R55: x_1_7_2 + x_2_7_2 + x_3_7_2 + x_4_7_2 + x_5_7_2 + x_6_7_2 + x_7_7_2
   + x_8_7_2 + x_9_7_2 = 1
 R56: x_1_7_3 + x_2_7_3 + x_3_7_3 + x_4_7_3 + x_5_7_3 + x_6_7_3 + x_7_7_3
   + x_8_7_3 + x_9_7_3 = 1
 R57: x_1_7_4 + x_2_7_4 + x_3_7_4 + x_4_7_4 + x_5_7_4 + x_6_7_4 + x_7_7_4
   + x_8_7_4 + x_9_7_4 = 1
 R58: x_1_7_5 + x_2_7_5 + x_3_7_5 + x_4_7_5 + x_5_7_5 + x_6_7_5 + x_7_7_5
   + x_8_7_5 + x_9_7_5 = 1
 R59: x_1_7_6 + x_2_7_6 + x_3_7_6 + x_4_7_6 + x_5_7_6 + x_6_7_6 + x_7_7_6
   + x_8_7_6 + x_9_7_6 = 1
 R60: x_1_7_7 + x_2_7_7 + x_3_7_7 + x_4_7_7 + x_5_7_7 + x_6_7_7 + x_7_7_7
   + x_8_7_7 + x_9_7_7 = 1
 R61: x_1_7_8 + x_2_7_8 + x_3_7_8 + x_4_7_8 + x_5_7_8 + x_6_7_8 + x_7_7_8
   + x_8_7_8 + x_9_7_8 = 1
 R62: x_1_7_9 + x_2_7_9 + x_3_7_9 + x_4_7_9 + x_5_7_9 + x_6_7_9 + x_7_7_9
   + x_8_7_9 + x_9_7_9 = 1
 R63: x_1_8_1 + x_2_8_1 + x_3_8_1 + x_4_8_1 + x_5_8_1 + x_6_8_1 + x_7_8_1
   + x_8_8_1 + x_9_8_1 = 1
 R64: x_1_8_2 + x_2_8_2 + x_3_8_2 + x_4_8_2 + x_5_8_2 + x_6_8_2 + x_7_8_2
   + x_8_8_2 + x_9_8_2 = 1
 R65: x_1_8_3 + x_2_8_3 + x_3_8_3 + x_4_8_3 + x_5_8_3 + x_6_8_3 + x_7_8_3
   + x_8_8_3 + x_9_8_3 = 1
 R66: x_1_8_4 + x_2_8_4 + x_3_8_4 + x_4_8_4 + x_5_8_4 + x_6_8_4 + x_7_8_4
   + x_8_8_4 + x_9_8_4 = 1
 R67: x_1_8_5 + x_2_8_5 + x_3_8_5 + x_4_8_5 + x_5_8_5 + x_6_8_5 + x_7_8_5
   + x_8_8_5 + x_9_8_5 = 1
 R68: x_1_8_6 + x_2_8_6 + x_3_8_6 + x_4_8_6 + x_5_8_6 + x_6_8_6 + x_7_8_6
   + x_8_8_6 + x_9_8_6 = 1
 R69: x_1_8_7 + x_2_8_7 + x_3_8_7 + x_4_8_7 + x_5_8_7 + x_6_8_7 + x_7_8_7
   + x_8_8_7 + x_9_8_7 = 1
 R70: x_1_8_8 + x_2_8_8 + x_3_8_8 + x_4_8_8 + x_5_8_8 + x_6_8_8 + x_7_8_8
   + x_8_8_8 + x_9_8_8 = 1
 R71: x_1_8_9 + x_2_8_9 + x_3_8_9 + x_4_8_9 + x_5_8_9 + x_6_8_9 + x_7_8_9
   + x_8_8_9 + x_9_8_9 = 1
 R72: x_1_9_1 + x_2_9_1 + x_3_9_1 + x_4_9_1 + x_5_9_1 + x_6_9_1 + x_7_9_1
   + x_8_9_1 + x_9_9_1 = 1
 R73: x_1_9_2 + x_2_9_2 + x_3_9_2 + x_4_9_2 + x_5_9_2 + x_6_9_2 + x_7_9_2
   + x_8_9_2 + x_9_9_2 = 1
 R74: x_1_9_3 + x_2_9_3 + x_3_9_3 + x_4_9_3 + x_5_9_3 + x_6_9_3 + x_7_9_3
   + x_8_9_3 + x_9_9_3 = 1
 R75: x_1_9_4 + x_2_9_4 + x_3_9_4 + x_4_9_4 + x_5_9_4 + x_6_9_4 + x_7_9_4
   + x_8_9_4 + x_9_9_4 = 1
 R76: x_1_9_5 + x_2_9_5 + x_3_9_5 + x_4_9_5 + x_5_9_5 + x_6_9_5 + x_7_9_5
   + x_8_9_5 + x_9_9_5 = 1
 R77: x_1_9_6 + x_2_9_6 + x_3_9_6 + x_4_9_6 + x_5_9_6 + x_6_9_6 + x_7_9_6
   + x_8_9_6 + x_9_9_6 = 1
 R78: x_1_9_7 + x_2_9_7 + x_3_9_7 + x_4_9_7 + x_5_9_7 + x_6_9_7 + x_7_9_7
   + x_8_9_7 + x_9_9_7 = 1
 R79: x_1_9_8 + x_2_9_8 + x_3_9_8 + x_4_9_8 + x_5_9_8 + x_6_9_8 + x_7_9_8
   + x_8_9_8 + x_9_9_8 = 1
 R80: x_1_9_9 + x_2_9_9 + x_3_9_9 + x_4_9_9 + x_5_9_9 + x_6_9_9 + x_7_9_9
   + x_8_9_9 + x_9_9_9 = 1
 R81: x_1_1_1 + x_1_1_2 + x_1_1_3 + x_1_1_4 + x_1_1_5 + x_1_1_6 + x_1_1_7
   + x_1_1_8 + x_1_1_9 = 1
 R82: x_2_1_1 + x_2_1_2 + x_2_1_3 + x_2_1_4 + x_2_1_5 + x_2_1_6 + x_2_1_7
   + x_2_1_8 + x_2_1_9 = 1
 R83: x_3_1_1 + x_3_1_2 + x_3_1_3 + x_3_1_4 + x_3_1_5 + x_3_1_6 + x_3_1_7
   + x_3_1_8 + x_3_1_9 = 1
 R84: x_4_1_1 + x_4_1_2 + x_4_1_3 + x_4_1_4 + x_4_1_5 + x_4_1_6 + x_4_1_7
   + x_4_1_8 + x_4_1_9 = 1
 R85: x_5_1_1 + x_5_1_2 + x_5_1_3 + x_5_1_4 + x_5_1_5 + x_5_1_6 + x_5_1_7
   + x_5_1_8 + x_5_1_9 = 1
 R86: x_6_1_1 + x_6_1_2 + x_6_1_3 + x_6_1_4 + x_6_1_5 + x_6_1_6 + x_6_1_7
   + x_6_1_8 + x_6_1_9 = 1
 R87: x_7_1_1 + x_7_1_2 + x_7_1_3 + x_7_1_4 + x_7_1_5 + x_7_1_6 + x_7_1_7
   + x_7_1_8 + x_7_1_9 = 1
 R88: x_8_1_1 + x_8_1_2 + x_8_1_3 + x_8_1_4 + x_8_1_5 + x_8_1_6 + x_8_1_7
   + x_8_1_8 + x_8_1_9 = 1
 R89: x_9_1_1 + x_9_1_2 + x_9_1_3 + x_9_1_4 + x_9_1_5 + x_9_1_6 + x_9_1_7
   + x_9_1_8 + x_9_1_9 = 1
 R90: x_1_2_1 + x_1_2_2 + x_1_2_3 + x_1_2_4 + x_1_2_5 + x_1_2_6 + x_1_2_7
   + x_1_2_8 + x_1_2_9 = 1
 R91: x_2_2_1 + x_2_2_2 + x_2_2_3 + x_2_2_4 + x_2_2_5 + x_2_2_6 + x_2_2_7
   + x_2_2_8 + x_2_2_9 = 1
 R92: x_3_2_1 + x_3_2_2 + x_3_2_3 + x_3_2_4 + x_3_2_5 + x_3_2_6 + x_3_2_7
   + x_3_2_8 + x_3_2_9 = 1
 R93: x_4_2_1 + x_4_2_2 + x_4_2_3 + x_4_2_4 + x_4_2_5 + x_4_2_6 + x_4_2_7
   + x_4_2_8 + x_4_2_9 = 1
 R94: x_5_2_1 + x_5_2_2 + x_5_2_3 + x_5_2_4 + x_5_2_5 + x_5_2_6 + x_5_2_7
   + x_5_2_8 + x_5_2_9 = 1
 R95: x_6_2_1 + x_6_2_2 + x_6_2_3 + x_6_2_4 + x_6_2_5 + x_6_2_6 + x_6_2_7
   + x_6_2_8 + x_6_2_9 = 1
 R96: x_7_2_1 + x_7_2_2 + x_7_2_3 + x_7_2_4 + x_7_2_5 + x_7_2_6 + x_7_2_7
   + x_7_2_8 + x_7_2_9 = 1
 R97: x_8_2_1 + x_8_2_2 + x_8_2_3 + x_8_2_4 + x_8_2_5 + x_8_2_6 + x_8_2_7
   + x_8_2_8 + x_8_2_9 = 1
 R98: x_9_2_1 + x_9_2_2 + x_9_2_3 + x_9_2_4 + x_9_2_5 + x_9_2_6 + x_9_2_7
   + x_9_2_8 + x_9_2_9 = 1
 R99: x_1_3_1 + x_1_3_2 + x_1_3_3 + x_1_3_4 + x_1_3_5 + x_1_3_6 + x_1_3_7
   + x_1_3_8 + x_1_3_9 = 1
 R100: x_2_3_1 + x_2_3_2 + x_2_3_3 + x_2_3_4 + x_2_3_5 + x_2_3_6 + x_2_3_7
   + x_2_3_8 + x_2_3_9 = 1
 R101: x_3_3_1 + x_3_3_2 + x_3_3_3 + x_3_3_4 + x_3_3_5 + x_3_3_6 + x_3_3_7
   + x_3_3_8 + x_3_3_9 = 1
 R102: x_4_3_1 + x_4_3_2 + x_4_3_3 + x_4_3_4 + x_4_3_5 + x_4_3_6 + x_4_3_7
   + x_4_3_8 + x_4_3_9 = 1
 R103: x_5_3_1 + x_5_3_2 + x_5_3_3 + x_5_3_4 + x_5_3_5 + x_5_3_6 + x_5_3_7
   + x_5_3_8 + x_5_3_9 = 1
 R104: x_6_3_1 + x_6_3_2 + x_6_3_3 + x_6_3_4 + x_6_3_5 + x_6_3_6 + x_6_3_7
   + x_6_3_8 + x_6_3_9 = 1
 R105: x_7_3_1 + x_7_3_2 + x_7_3_3 + x_7_3_4 + x_7_3_5 + x_7_3_6 + x_7_3_7
   + x_7_3_8 + x_7_3_9 = 1
 R106: x_8_3_1 + x_8_3_2 + x_8_3_3 + x_8_3_4 + x_8_3_5 + x_8_3_6 + x_8_3_7
   + x_8_3_8 + x_8_3_9 = 1
 R107: x_9_3_1 + x_9_3_2 + x_9_3_3 + x_9_3_4 + x_9_3_5 + x_9_3_6 + x_9_3_7
   + x_9_3_8 + x_9_3_9 = 1
 R108: x_1_4_1 + x_1_4_2 + x_1_4_3 + x_1_4_4 + x_1_4_5 + x_1_4_6 + x_1_4_7
   + x_1_4_8 + x_1_4_9 = 1
 R109: x_2_4_1 + x_2_4_2 + x_2_4_3 + x_2_4_4 + x_2_4_5 + x_2_4_6 + x_2_4_7
   + x_2_4_8 + x_2_4_9 = 1
 R110: x_3_4_1 + x_3_4_2 + x_3_4_3 + x_3_4_4 + x_3_4_5 + x_3_4_6 + x_3_4_7
   + x_3_4_8 + x_3_4_9 = 1
 R111: x_4_4_1 + x_4_4_2 + x_4_4_3 + x_4_4_4 + x_4_4_5 + x_4_4_6 + x_4_4_7
   + x_4_4_8 + x_4_4_9 = 1
 R112: x_5_4_1 + x_5_4_2 + x_5_4_3 + x_5_4_4 + x_5_4_5 + x_5_4_6 + x_5_4_7
   + x_5_4_8 + x_5_4_9 = 1
 R113: x_6_4_1 + x_6_4_2 + x_6_4_3 + x_6_4_4 + x_6_4_5 + x_6_4_6 + x_6_4_7
   + x_6_4_8 + x_6_4_9 = 1
 R114: x_7_4_1 + x_7_4_2 + x_7_4_3 + x_7_4_4 + x_7_4_5 + x_7_4_6 + x_7_4_7
   + x_7_4_8 + x_7_4_9 = 1
 R115: x_8_4_1 + x_8_4_2 + x_8_4_3 + x_8_4_4 + x_8_4_5 + x_8_4_6 + x_8_4_7
   + x_8_4_8 + x_8_4_9 = 1
 R116: x_9_4_1 + x_9_4_2 + x_9_4_3 + x_9_4_4 + x_9_4_5 + x_9_4_6 + x_9_4_7
   + x_9_4_8 + x_9_4_9 = 1
 R117: x_1_5_1 + x_1_5_2 + x_1_5_3 + x_1_5_4 + x_1_5_5 + x_1_5_6 + x_1_5_7
   + x_1_5_8 + x_1_5_9 = 1
 R118: x_2_5_1 + x_2_5_2 + x_2_5_3 + x_2_5_4 + x_2_5_5 + x_2_5_6 + x_2_5_7
   + x_2_5_8 + x_2_5_9 = 1
 R119: x_3_5_1 + x_3_5_2 + x_3_5_3 + x_3_5_4 + x_3_5_5 + x_3_5_6 + x_3_5_7
   + x_3_5_8 + x_3_5_9 = 1
 R120: x_4_5_1 + x_4_5_2 + x_4_5_3 + x_4_5_4 + x_4_5_5 + x_4_5_6 + x_4_5_7
   + x_4_5_8 + x_4_5_9 = 1
 R121: x_5_5_1 + x_5_5_2 + x_5_5_3 + x_5_5_4 + x_5_5_5 + x_5_5_6 + x_5_5_7
   + x_5_5_8 + x_5_5_9 = 1
 R122: x_6_5_1 + x_6_5_2 + x_6_5_3 + x_6_5_4 + x_6_5_5 + x_6_5_6 + x_6_5_7
   + x_6_5_8 + x_6_5_9 = 1
 R123: x_7_5_1 + x_7_5_2 + x_7_5_3 + x_7_5_4 + x_7_5_5 + x_7_5_6 + x_7_5_7
   + x_7_5_8 + x_7_5_9 = 1
 R124: x_8_5_1 + x_8_5_2 + x_8_5_3 + x_8_5_4 + x_8_5_5 + x_8_5_6 + x_8_5_7
   + x_8_5_8 + x_8_5_9 = 1
 R125: x_9_5_1 + x_9_5_2 + x_9_5_3 + x_9_5_4 + x_9_5_5 + x_9_5_6 + x_9_5_7
   + x_9_5_8 + x_9_5_9 = 1
 R126: x_1_6_1 + x_1_6_2 + x_1_6_3 + x_1_6_4 + x_1_6_5 + x_1_6_6 + x_1_6_7
   + x_1_6_8 + x_1_6_9 = 1
 R127: x_2_6_1 + x_2_6_2 + x_2_6_3 + x_2_6_4 + x_2_6_5 + x_2_6_6 + x_2_6_7
   + x_2_6_8 + x_2_6_9 = 1
 R128: x_3_6_1 + x_3_6_2 + x_3_6_3 + x_3_6_4 + x_3_6_5 + x_3_6_6 + x_3_6_7
   + x_3_6_8 + x_3_6_9 = 1
 R129: x_4_6_1 + x_4_6_2 + x_4_6_3 + x_4_6_4 + x_4_6_5 + x_4_6_6 + x_4_6_7
   + x_4_6_8 + x_4_6_9 = 1
 R130: x_5_6_1 + x_5_6_2 + x_5_6_3 + x_5_6_4 + x_5_6_5 + x_5_6_6 + x_5_6_7
   + x_5_6_8 + x_5_6_9 = 1
 R131: x_6_6_1 + x_6_6_2 + x_6_6_3 + x_6_6_4 + x_6_6_5 + x_6_6_6 + x_6_6_7
   + x_6_6_8 + x_6_6_9 = 1
 R132: x_7_6_1 + x_7_6_2 + x_7_6_3 + x_7_6_4 + x_7_6_5 + x_7_6_6 + x_7_6_7
   + x_7_6_8 + x_7_6_9 = 1
 R133: x_8_6_1 + x_8_6_2 + x_8_6_3 + x_8_6_4 + x_8_6_5 + x_8_6_6 + x_8_6_7
   + x_8_6_8 + x_8_6_9 = 1
 R134: x_9_6_1 + x_9_6_2 + x_9_6_3 + x_9_6_4 + x_9_6_5 + x_9_6_6 + x_9_6_7
   + x_9_6_8 + x_9_6_9 = 1
 R135: x_1_7_1 + x_1_7_2 + x_1_7_3 + x_1_7_4 + x_1_7_5 + x_1_7_6 + x_1_7_7
   + x_1_7_8 + x_1_7_9 = 1
 R136: x_2_7_1 + x_2_7_2 + x_2_7_3 + x_2_7_4 + x_2_7_5 + x_2_7_6 + x_2_7_7
   + x_2_7_8 + x_2_7_9 = 1
 R137: x_3_7_1 + x_3_7_2 + x_3_7_3 + x_3_7_4 + x_3_7_5 + x_3_7_6 + x_3_7_7
   + x_3_7_8 + x_3_7_9 = 1
 R138: x_4_7_1 + x_4_7_2 + x_4_7_3 + x_4_7_4 + x_4_7_5 + x_4_7_6 + x_4_7_7
   + x_4_7_8 + x_4_7_9 = 1
 R139: x_5_7_1 + x_5_7_2 + x_5_7_3 + x_5_7_4 + x_5_7_5 + x_5_7_6 + x_5_7_7
   + x_5_7_8 + x_5_7_9 = 1
 R140: x_6_7_1 + x_6_7_2 + x_6_7_3 + x_6_7_4 + x_6_7_5 + x_6_7_6 + x_6_7_7
   + x_6_7_8 + x_6_7_9 = 1
 R141: x_7_7_1 + x_7_7_2 + x_7_7_3 + x_7_7_4 + x_7_7_5 + x_7_7_6 + x_7_7_7
   + x_7_7_8 + x_7_7_9 = 1
 R142: x_8_7_1 + x_8_7_2 + x_8_7_3 + x_8_7_4 + x_8_7_5 + x_8_7_6 + x_8_7_7
   + x_8_7_8 + x_8_7_9 = 1
 R143: x_9_7_1 + x_9_7_2 + x_9_7_3 + x_9_7_4 + x_9_7_5 + x_9_7_6 + x_9_7_7
   + x_9_7_8 + x_9_7_9 = 1
 R144: x_1_8_1 + x_1_8_2 + x_1_8_3 + x_1_8_4 + x_1_8_5 + x_1_8_6 + x_1_8_7
   + x_1_8_8 + x_1_8_9 = 1
 R145: x_2_8_1 + x_2_8_2 + x_2_8_3 + x_2_8_4 + x_2_8_5 + x_2_8_6 + x_2_8_7
   + x_2_8_8 + x_2_8_9 = 1
 R146: x_3_8_1 + x_3_8_2 + x_3_8_3 + x_3_8_4 + x_3_8_5 + x_3_8_6 + x_3_8_7
   + x_3_8_8 + x_3_8_9 = 1
 R147: x_4_8_1 + x_4_8_2 + x_4_8_3 + x_4_8_4 + x_4_8_5 + x_4_8_6 + x_4_8_7
   + x_4_8_8 + x_4_8_9 = 1
 R148: x_5_8_1 + x_5_8_2 + x_5_8_3 + x_5_8_4 + x_5_8_5 + x_5_8_6 + x_5_8_7
   + x_5_8_8 + x_5_8_9 = 1
 R149: x_6_8_1 + x_6_8_2 + x_6_8_3 + x_6_8_4 + x_6_8_5 + x_6_8_6 + x_6_8_7
   + x_6_8_8 + x_6_8_9 = 1
 R150: x_7_8_1 + x_7_8_2 + x_7_8_3 + x_7_8_4 + x_7_8_5 + x_7_8_6 + x_7_8_7
   + x_7_8_8 + x_7_8_9 = 1
 R151: x_8_8_1 + x_8_8_2 + x_8_8_3 + x_8_8_4 + x_8_8_5 + x_8_8_6 + x_8_8_7
   + x_8_8_8 + x_8_8_9 = 1
 R152: x_9_8_1 + x_9_8_2 + x_9_8_3 + x_9_8_4 + x_9_8_5 + x_9_8_6 + x_9_8_7
   + x_9_8_8 + x_9_8_9 = 1
 R153: x_1_9_1 + x_1_9_2 + x_1_9_3 + x_1_9_4 + x_1_9_5 + x_1_9_6 + x_1_9_7
   + x_1_9_8 + x_1_9_9 = 1
 R154: x_2_9_1 + x_2_9_2 + x_2_9_3 + x_2_9_4 + x_2_9_5 + x_2_9_6 + x_2_9_7
   + x_2_9_8 + x_2_9_9 = 1
 R155: x_3_9_1 + x_3_9_2 + x_3_9_3 + x_3_9_4 + x_3_9_5 + x_3_9_6 + x_3_9_7
   + x_3_9_8 + x_3_9_9 = 1
 R156: x_4_9_1 + x_4_9_2 + x_4_9_3 + x_4_9_4 + x_4_9_5 + x_4_9_6 + x_4_9_7
   + x_4_9_8 + x_4_9_9 = 1
 R157: x_5_9_1 + x_5_9_2 + x_5_9_3 + x_5_9_4 + x_5_9_5 + x_5_9_6 + x_5_9_7
   + x_5_9_8 + x_5_9_9 = 1
 R158: x_6_9_1 + x_6_9_2 + x_6_9_3 + x_6_9_4 + x_6_9_5 + x_6_9_6 + x_6_9_7
   + x_6_9_8 + x_6_9_9 = 1
 R159: x_7_9_1 + x_7_9_2 + x_7_9_3 + x_7_9_4 + x_7_9_5 + x_7_9_6 + x_7_9_7
   + x_7_9_8 + x_7_9_9 = 1
 R160: x_8_9_1 + x_8_9_2 + x_8_9_3 + x_8_9_4 + x_8_9_5 + x_8_9_6 + x_8_9_7
   + x_8_9_8 + x_8_9_9 = 1
 R161: x_9_9_1 + x_9_9_2 + x_9_9_3 + x_9_9_4 + x_9_9_5 + x_9_9_6 + x_9_9_7
   + x_9_9_8 + x_9_9_9 = 1
 R162: x_1_1_1 + x_1_2_1 + x_1_3_1 + x_1_4_1 + x_1_5_1 + x_1_6_1 + x_1_7_1
   + x_1_8_1 + x_1_9_1 = 1
 R163: x_2_1_1 + x_2_2_1 + x_2_3_1 + x_2_4_1 + x_2_5_1 + x_2_6_1 + x_2_7_1
   + x_2_8_1 + x_2_9_1 = 1
 R164: x_3_1_1 + x_3_2_1 + x_3_3_1 + x_3_4_1 + x_3_5_1 + x_3_6_1 + x_3_7_1
   + x_3_8_1 + x_3_9_1 = 1
 R165: x_4_1_1 + x_4_2_1 + x_4_3_1 + x_4_4_1 + x_4_5_1 + x_4_6_1 + x_4_7_1
   + x_4_8_1 + x_4_9_1 = 1
 R166: x_5_1_1 + x_5_2_1 + x_5_3_1 + x_5_4_1 + x_5_5_1 + x_5_6_1 + x_5_7_1
   + x_5_8_1 + x_5_9_1 = 1
 R167: x_6_1_1 + x_6_2_1 + x_6_3_1 + x_6_4_1 + x_6_5_1 + x_6_6_1 + x_6_7_1
   + x_6_8_1 + x_6_9_1 = 1
 R168: x_7_1_1 + x_7_2_1 + x_7_3_1 + x_7_4_1 + x_7_5_1 + x_7_6_1 + x_7_7_1
   + x_7_8_1 + x_7_9_1 = 1
 R169: x_8_1_1 + x_8_2_1 + x_8_3_1 + x_8_4_1 + x_8_5_1 + x_8_6_1 + x_8_7_1
   + x_8_8_1 + x_8_9_1 = 1
 R170: x_9_1_1 + x_9_2_1 + x_9_3_1 + x_9_4_1 + x_9_5_1 + x_9_6_1 + x_9_7_1
   + x_9_8_1 + x_9_9_1 = 1
 R171: x_1_1_2 + x_1_2_2 + x_1_3_2 + x_1_4_2 + x_1_5_2 + x_1_6_2 + x_1_7_2
   + x_1_8_2 + x_1_9_2 = 1
 R172: x_2_1_2 + x_2_2_2 + x_2_3_2 + x_2_4_2 + x_2_5_2 + x_2_6_2 + x_2_7_2
   + x_2_8_2 + x_2_9_2 = 1
 R173: x_3_1_2 + x_3_2_2 + x_3_3_2 + x_3_4_2 + x_3_5_2 + x_3_6_2 + x_3_7_2
   + x_3_8_2 + x_3_9_2 = 1
 R174: x_4_1_2 + x_4_2_2 + x_4_3_2 + x_4_4_2 + x_4_5_2 + x_4_6_2 + x_4_7_2
   + x_4_8_2 + x_4_9_2 = 1
 R175: x_5_1_2 + x_5_2_2 + x_5_3_2 + x_5_4_2 + x_5_5_2 + x_5_6_2 + x_5_7_2
   + x_5_8_2 + x_5_9_2 = 1
 R176: x_6_1_2 + x_6_2_2 + x_6_3_2 + x_6_4_2 + x_6_5_2 + x_6_6_2 + x_6_7_2
   + x_6_8_2 + x_6_9_2 = 1
 R177: x_7_1_2 + x_7_2_2 + x_7_3_2 + x_7_4_2 + x_7_5_2 + x_7_6_2 + x_7_7_2
   + x_7_8_2 + x_7_9_2 = 1
 R178: x_8_1_2 + x_8_2_2 + x_8_3_2 + x_8_4_2 + x_8_5_2 + x_8_6_2 + x_8_7_2
   + x_8_8_2 + x_8_9_2 = 1
 R179: x_9_1_2 + x_9_2_2 + x_9_3_2 + x_9_4_2 + x_9_5_2 + x_9_6_2 + x_9_7_2
   + x_9_8_2 + x_9_9_2 = 1
 R180: x_1_1_3 + x_1_2_3 + x_1_3_3 + x_1_4_3 + x_1_5_3 + x_1_6_3 + x_1_7_3
   + x_1_8_3 + x_1_9_3 = 1
 R181: x_2_1_3 + x_2_2_3 + x_2_3_3 + x_2_4_3 + x_2_5_3 + x_2_6_3 + x_2_7_3
   + x_2_8_3 + x_2_9_3 = 1
 R182: x_3_1_3 + x_3_2_3 + x_3_3_3 + x_3_4_3 + x_3_5_3 + x_3_6_3 + x_3_7_3
   + x_3_8_3 + x_3_9_3 = 1
 R183: x_4_1_3 + x_4_2_3 + x_4_3_3 + x_4_4_3 + x_4_5_3 + x_4_6_3 + x_4_7_3
   + x_4_8_3 + x_4_9_3 = 1
 R184: x_5_1_3 + x_5_2_3 + x_5_3_3 + x_5_4_3 + x_5_5_3 + x_5_6_3 + x_5_7_3
   + x_5_8_3 + x_5_9_3 = 1
 R185: x_6_1_3 + x_6_2_3 + x_6_3_3 + x_6_4_3 + x_6_5_3 + x_6_6_3 + x_6_7_3
   + x_6_8_3 + x_6_9_3 = 1
 R186: x_7_1_3 + x_7_2_3 + x_7_3_3 + x_7_4_3 + x_7_5_3 + x_7_6_3 + x_7_7_3
   + x_7_8_3 + x_7_9_3 = 1
 R187: x_8_1_3 + x_8_2_3 + x_8_3_3 + x_8_4_3 + x_8_5_3 + x_8_6_3 + x_8_7_3
   + x_8_8_3 + x_8_9_3 = 1
 R188: x_9_1_3 + x_9_2_3 + x_9_3_3 + x_9_4_3 + x_9_5_3 + x_9_6_3 + x_9_7_3
   + x_9_8_3 + x_9_9_3 = 1
 R189: x_1_1_4 + x_1_2_4 + x_1_3_4 + x_1_4_4 + x_1_5_4 + x_1_6_4 + x_1_7_4
   + x_1_8_4 + x_1_9_4 = 1
 R190: x_2_1_4 + x_2_2_4 + x_2_3_4 + x_2_4_4 + x_2_5_4 + x_2_6_4 + x_2_7_4
   + x_2_8_4 + x_2_9_4 = 1
 R191: x_3_1_4 + x_3_2_4 + x_3_3_4 + x_3_4_4 + x_3_5_4 + x_3_6_4 + x_3_7_4
   + x_3_8_4 + x_3_9_4 = 1
 R192: x_4_1_4 + x_4_2_4 + x_4_3_4 + x_4_4_4 + x_4_5_4 + x_4_6_4 + x_4_7_4
   + x_4_8_4 + x_4_9_4 = 1
 R193: x_5_1_4 + x_5_2_4 + x_5_3_4 + x_5_4_4 + x_5_5_4 + x_5_6_4 + x_5_7_4
   + x_5_8_4 + x_5_9_4 = 1
 R194: x_6_1_4 + x_6_2_4 + x_6_3_4 + x_6_4_4 + x_6_5_4 + x_6_6_4 + x_6_7_4
   + x_6_8_4 + x_6_9_4 = 1
 R195: x_7_1_4 + x_7_2_4 + x_7_3_4 + x_7_4_4 + x_7_5_4 + x_7_6_4 + x_7_7_4
   + x_7_8_4 + x_7_9_4 = 1
 R196: x_8_1_4 + x_8_2_4 + x_8_3_4 + x_8_4_4 + x_8_5_4 + x_8_6_4 + x_8_7_4
   + x_8_8_4 + x_8_9_4 = 1
 R197: x_9_1_4 + x_9_2_4 + x_9_3_4 + x_9_4_4 + x_9_5_4 + x_9_6_4 + x_9_7_4
   + x_9_8_4 + x_9_9_4 = 1
 R198: x_1_1_5 + x_1_2_5 + x_1_3_5 + x_1_4_5 + x_1_5_5 + x_1_6_5 + x_1_7_5
   + x_1_8_5 + x_1_9_5 = 1
 R199: x_2_1_5 + x_2_2_5 + x_2_3_5 + x_2_4_5 + x_2_5_5 + x_2_6_5 + x_2_7_5
   + x_2_8_5 + x_2_9_5 = 1
 R200: x_3_1_5 + x_3_2_5 + x_3_3_5 + x_3_4_5 + x_3_5_5 + x_3_6_5 + x_3_7_5
   + x_3_8_5 + x_3_9_5 = 1
 R201: x_4_1_5 + x_4_2_5 + x_4_3_5 + x_4_4_5 + x_4_5_5 + x_4_6_5 + x_4_7_5
   + x_4_8_5 + x_4_9_5 = 1
 R202: x_5_1_5 + x_5_2_5 + x_5_3_5 + x_5_4_5 + x_5_5_5 + x_5_6_5 + x_5_7_5
   + x_5_8_5 + x_5_9_5 = 1
 R203: x_6_1_5 + x_6_2_5 + x_6_3_5 + x_6_4_5 + x_6_5_5 + x_6_6_5 + x_6_7_5
   + x_6_8_5 + x_6_9_5 = 1
 R204: x_7_1_5 + x_7_2_5 + x_7_3_5 + x_7_4_5 + x_7_5_5 + x_7_6_5 + x_7_7_5
   + x_7_8_5 + x_7_9_5 = 1
 R205: x_8_1_5 + x_8_2_5 + x_8_3_5 + x_8_4_5 + x_8_5_5 + x_8_6_5 + x_8_7_5
   + x_8_8_5 + x_8_9_5 = 1
 R206: x_9_1_5 + x_9_2_5 + x_9_3_5 + x_9_4_5 + x_9_5_5 + x_9_6_5 + x_9_7_5
   + x_9_8_5 + x_9_9_5 = 1
 R207: x_1_1_6 + x_1_2_6 + x_1_3_6 + x_1_4_6 + x_1_5_6 + x_1_6_6 + x_1_7_6
   + x_1_8_6 + x_1_9_6 = 1
 R208: x_2_1_6 + x_2_2_6 + x_2_3_6 + x_2_4_6 + x_2_5_6 + x_2_6_6 + x_2_7_6
   + x_2_8_6 + x_2_9_6 = 1
 R209: x_3_1_6 + x_3_2_6 + x_3_3_6 + x_3_4_6 + x_3_5_6 + x_3_6_6 + x_3_7_6
   + x_3_8_6 + x_3_9_6 = 1
 R210: x_4_1_6 + x_4_2_6 + x_4_3_6 + x_4_4_6 + x_4_5_6 + x_4_6_6 + x_4_7_6
   + x_4_8_6 + x_4_9_6 = 1
 R211: x_5_1_6 + x_5_2_6 + x_5_3_6 + x_5_4_6 + x_5_5_6 + x_5_6_6 + x_5_7_6
   + x_5_8_6 + x_5_9_6 = 1
 R212: x_6_1_6 + x_6_2_6 + x_6_3_6 + x_6_4_6 + x_6_5_6 + x_6_6_6 + x_6_7_6
   + x_6_8_6 + x_6_9_6 = 1
 R213: x_7_1_6 + x_7_2_6 + x_7_3_6 + x_7_4_6 + x_7_5_6 + x_7_6_6 + x_7_7_6
   + x_7_8_6 + x_7_9_6 = 1
 R214: x_8_1_6 + x_8_2_6 + x_8_3_6 + x_8_4_6 + x_8_5_6 + x_8_6_6 + x_8_7_6
   + x_8_8_6 + x_8_9_6 = 1
 R215: x_9_1_6 + x_9_2_6 + x_9_3_6 + x_9_4_6 + x_9_5_6 + x_9_6_6 + x_9_7_6
   + x_9_8_6 + x_9_9_6 = 1
 R216: x_1_1_7 + x_1_2_7 + x_1_3_7 + x_1_4_7 + x_1_5_7 + x_1_6_7 + x_1_7_7
   + x_1_8_7 + x_1_9_7 = 1
 R217: x_2_1_7 + x_2_2_7 + x_2_3_7 + x_2_4_7 + x_2_5_7 + x_2_6_7 + x_2_7_7
   + x_2_8_7 + x_2_9_7 = 1
 R218: x_3_1_7 + x_3_2_7 + x_3_3_7 + x_3_4_7 + x_3_5_7 + x_3_6_7 + x_3_7_7
   + x_3_8_7 + x_3_9_7 = 1
 R219: x_4_1_7 + x_4_2_7 + x_4_3_7 + x_4_4_7 + x_4_5_7 + x_4_6_7 + x_4_7_7
   + x_4_8_7 + x_4_9_7 = 1
 R220: x_5_1_7 + x_5_2_7 + x_5_3_7 + x_5_4_7 + x_5_5_7 + x_5_6_7 + x_5_7_7
   + x_5_8_7 + x_5_9_7 = 1
 R221: x_6_1_7 + x_6_2_7 + x_6_3_7 + x_6_4_7 + x_6_5_7 + x_6_6_7 + x_6_7_7
   + x_6_8_7 + x_6_9_7 = 1
 R222: x_7_1_7 + x_7_2_7 + x_7_3_7 + x_7_4_7 + x_7_5_7 + x_7_6_7 + x_7_7_7
   + x_7_8_7 + x_7_9_7 = 1
 R223: x_8_1_7 + x_8_2_7 + x_8_3_7 + x_8_4_7 + x_8_5_7 + x_8_6_7 + x_8_7_7
   + x_8_8_7 + x_8_9_7 = 1
 R224: x_9_1_7 + x_9_2_7 + x_9_3_7 + x_9_4_7 + x_9_5_7 + x_9_6_7 + x_9_7_7
   + x_9_8_7 + x_9_9_7 = 1
 R225: x_1_1_8 + x_1_2_8 + x_1_3_8 + x_1_4_8 + x_1_5_8 + x_1_6_8 + x_1_7_8
   + x_1_8_8 + x_1_9_8 = 1
 R226: x_2_1_8 + x_2_2_8 + x_2_3_8 + x_2_4_8 + x_2_5_8 + x_2_6_8 + x_2_7_8
   + x_2_8_8 + x_2_9_8 = 1
 R227: x_3_1_8 + x_3_2_8 + x_3_3_8 + x_3_4_8 + x_3_5_8 + x_3_6_8 + x_3_7_8
   + x_3_8_8 + x_3_9_8 = 1
 R228: x_4_1_8 + x_4_2_8 + x_4_3_8 + x_4_4_8 + x_4_5_8 + x_4_6_8 + x_4_7_8
   + x_4_8_8 + x_4_9_8 = 1
 R229: x_5_1_8 + x_5_2_8 + x_5_3_8 + x_5_4_8 + x_5_5_8 + x_5_6_8 + x_5_7_8
   + x_5_8_8 + x_5_9_8 = 1
 R230: x_6_1_8 + x_6_2_8 + x_6_3_8 + x_6_4_8 + x_6_5_8 + x_6_6_8 + x_6_7_8
   + x_6_8_8 + x_6_9_8 = 1
 R231: x_7_1_8 + x_7_2_8 + x_7_3_8 + x_7_4_8 + x_7_5_8 + x_7_6_8 + x_7_7_8
   + x_7_8_8 + x_7_9_8 = 1
 R232: x_8_1_8 + x_8_2_8 + x_8_3_8 + x_8_4_8 + x_8_5_8 + x_8_6_8 + x_8_7_8
   + x_8_8_8 + x_8_9_8 = 1
 R233: x_9_1_8 + x_9_2_8 + x_9_3_8 + x_9_4_8 + x_9_5_8 + x_9_6_8 + x_9_7_8
   + x_9_8_8 + x_9_9_8 = 1
 R234: x_1_1_9 + x_1_2_9 + x_1_3_9 + x_1_4_9 + x_1_5_9 + x_1_6_9 + x_1_7_9
   + x_1_8_9 + x_1_9_9 = 1
 R235: x_2_1_9 + x_2_2_9 + x_2_3_9 + x_2_4_9 + x_2_5_9 + x_2_6_9 + x_2_7_9
   + x_2_8_9 + x_2_9_9 = 1
 R236: x_3_1_9 + x_3_2_9 + x_3_3_9 + x_3_4_9 + x_3_5_9 + x_3_6_9 + x_3_7_9
   + x_3_8_9 + x_3_9_9 = 1
 R237: x_4_1_9 + x_4_2_9 + x_4_3_9 + x_4_4_9 + x_4_5_9 + x_4_6_9 + x_4_7_9
   + x_4_8_9 + x_4_9_9 = 1
 R238: x_5_1_9 + x_5_2_9 + x_5_3_9 + x_5_4_9 + x_5_5_9 + x_5_6_9 + x_5_7_9
   + x_5_8_9 + x_5_9_9 = 1
 R239: x_6_1_9 + x_6_2_9 + x_6_3_9 + x_6_4_9 + x_6_5_9 + x_6_6_9 + x_6_7_9
   + x_6_8_9 + x_6_9_9 = 1
 R240: x_7_1_9 + x_7_2_9 + x_7_3_9 + x_7_4_9 + x_7_5_9 + x_7_6_9 + x_7_7_9
   + x_7_8_9 + x_7_9_9 = 1
 R241: x_8_1_9 + x_8_2_9 + x_8_3_9 + x_8_4_9 + x_8_5_9 + x_8_6_9 + x_8_7_9
   + x_8_8_9 + x_8_9_9 = 1
 R242: x_9_1_9 + x_9_2_9 + x_9_3_9 + x_9_4_9 + x_9_5_9 + x_9_6_9 + x_9_7_9
   + x_9_8_9 + x_9_9_9 = 1
 R243: x_1_1_1 + x_1_1_2 + x_1_1_3 + x_1_2_1 + x_1_2_2 + x_1_2_3 + x_1_3_1
   + x_1_3_2 + x_1_3_3 = 1
 R244: x_1_1_4 + x_1_1_5 + x_1_1_6 + x_1_2_4 + x_1_2_5 + x_1_2_6 + x_1_3_4
   + x_1_3_5 + x_1_3_6 = 1
 R245: x_1_1_7 + x_1_1_8 + x_1_1_9 + x_1_2_7 + x_1_2_8 + x_1_2_9 + x_1_3_7
   + x_1_3_8 + x_1_3_9 = 1
 R246: x_1_4_1 + x_1_4_2 + x_1_4_3 + x_1_5_1 + x_1_5_2 + x_1_5_3 + x_1_6_1
   + x_1_6_2 + x_1_6_3 = 1
 R247: x_1_4_4 + x_1_4_5 + x_1_4_6 + x_1_5_4 + x_1_5_5 + x_1_5_6 + x_1_6_4
   + x_1_6_5 + x_1_6_6 = 1
 R248: x_1_4_7 + x_1_4_8 + x_1_4_9 + x_1_5_7 + x_1_5_8 + x_1_5_9 + x_1_6_7
   + x_1_6_8 + x_1_6_9 = 1
 R249: x_1_7_1 + x_1_7_2 + x_1_7_3 + x_1_8_1 + x_1_8_2 + x_1_8_3 + x_1_9_1
   + x_1_9_2 + x_1_9_3 = 1
 R250: x_1_7_4 + x_1_7_5 + x_1_7_6 + x_1_8_4 + x_1_8_5 + x_1_8_6 + x_1_9_4
   + x_1_9_5 + x_1_9_6 = 1
 R251: x_1_7_7 + x_1_7_8 + x_1_7_9 + x_1_8_7 + x_1_8_8 + x_1_8_9 + x_1_9_7
   + x_1_9_8 + x_1_9_9 = 1
 R252: x_2_1_1 + x_2_1_2 + x_2_1_3 + x_2_2_1 + x_2_2_2 + x_2_2_3 + x_2_3_1
   + x_2_3_2 + x_2_3_3 = 1
 R253: x_2_1_4 + x_2_1_5 + x_2_1_6 + x_2_2_4 + x_2_2_5 + x_2_2_6 + x_2_3_4
   + x_2_3_5 + x_2_3_6 = 1
 R254: x_2_1_7 + x_2_1_8 + x_2_1_9 + x_2_2_7 + x_2_2_8 + x_2_2_9 + x_2_3_7
   + x_2_3_8 + x_2_3_9 = 1
 R255: x_2_4_1 + x_2_4_2 + x_2_4_3 + x_2_5_1 + x_2_5_2 + x_2_5_3 + x_2_6_1
   + x_2_6_2 + x_2_6_3 = 1
 R256: x_2_4_4 + x_2_4_5 + x_2_4_6 + x_2_5_4 + x_2_5_5 + x_2_5_6 + x_2_6_4
   + x_2_6_5 + x_2_6_6 = 1
 R257: x_2_4_7 + x_2_4_8 + x_2_4_9 + x_2_5_7 + x_2_5_8 + x_2_5_9 + x_2_6_7
   + x_2_6_8 + x_2_6_9 = 1
 R258: x_2_7_1 + x_2_7_2 + x_2_7_3 + x_2_8_1 + x_2_8_2 + x_2_8_3 + x_2_9_1
   + x_2_9_2 + x_2_9_3 = 1
 R259: x_2_7_4 + x_2_7_5 + x_2_7_6 + x_2_8_4 + x_2_8_5 + x_2_8_6 + x_2_9_4
   + x_2_9_5 + x_2_9_6 = 1
 R260: x_2_7_7 + x_2_7_8 + x_2_7_9 + x_2_8_7 + x_2_8_8 + x_2_8_9 + x_2_9_7
   + x_2_9_8 + x_2_9_9 = 1
 R261: x_3_1_1 + x_3_1_2 + x_3_1_3 + x_3_2_1 + x_3_2_2 + x_3_2_3 + x_3_3_1
   + x_3_3_2 + x_3_3_3 = 1
 R262: x_3_1_4 + x_3_1_5 + x_3_1_6 + x_3_2_4 + x_3_2_5 + x_3_2_6 + x_3_3_4
   + x_3_3_5 + x_3_3_6 = 1
 R263: x_3_1_7 + x_3_1_8 + x_3_1_9 + x_3_2_7 + x_3_2_8 + x_3_2_9 + x_3_3_7
   + x_3_3_8 + x_3_3_9 = 1
 R264: x_3_4_1 + x_3_4_2 + x_3_4_3 + x_3_5_1 + x_3_5_2 + x_3_5_3 + x_3_6_1
   + x_3_6_2 + x_3_6_3 = 1
 R265: x_3_4_4 + x_3_4_5 + x_3_4_6 + x_3_5_4 + x_3_5_5 + x_3_5_6 + x_3_6_4
   + x_3_6_5 + x_3_6_6 = 1
 R266: x_3_4_7 + x_3_4_8 + x_3_4_9 + x_3_5_7 + x_3_5_8 + x_3_5_9 + x_3_6_7
   + x_3_6_8 + x_3_6_9 = 1
 R267: x_3_7_1 + x_3_7_2 + x_3_7_3 + x_3_8_1 + x_3_8_2 + x_3_8_3 + x_3_9_1
   + x_3_9_2 + x_3_9_3 = 1
 R268: x_3_7_4 + x_3_7_5 + x_3_7_6 + x_3_8_4 + x_3_8_5 + x_3_8_6 + x_3_9_4
   + x_3_9_5 + x_3_9_6 = 1
 R269: x_3_7_7 + x_3_7_8 + x_3_7_9 + x_3_8_7 + x_3_8_8 + x_3_8_9 + x_3_9_7
   + x_3_9_8 + x_3_9_9 = 1
 R270: x_4_1_1 + x_4_1_2 + x_4_1_3 + x_4_2_1 + x_4_2_2 + x_4_2_3 + x_4_3_1
   + x_4_3_2 + x_4_3_3 = 1
 R271: x_4_1_4 + x_4_1_5 + x_4_1_6 + x_4_2_4 + x_4_2_5 + x_4_2_6 + x_4_3_4
   + x_4_3_5 + x_4_3_6 = 1
 R272: x_4_1_7 + x_4_1_8 + x_4_1_9 + x_4_2_7 + x_4_2_8 + x_4_2_9 + x_4_3_7
   + x_4_3_8 + x_4_3_9 = 1
 R273: x_4_4_1 + x_4_4_2 + x_4_4_3 + x_4_5_1 + x_4_5_2 + x_4_5_3 + x_4_6_1
   + x_4_6_2 + x_4_6_3 = 1
 R274: x_4_4_4 + x_4_4_5 + x_4_4_6 + x_4_5_4 + x_4_5_5 + x_4_5_6 + x_4_6_4
   + x_4_6_5 + x_4_6_6 = 1
 R275: x_4_4_7 + x_4_4_8 + x_4_4_9 + x_4_5_7 + x_4_5_8 + x_4_5_9 + x_4_6_7
   + x_4_6_8 + x_4_6_9 = 1
 R276: x_4_7_1 + x_4_7_2 + x_4_7_3 + x_4_8_1 + x_4_8_2 + x_4_8_3 + x_4_9_1
   + x_4_9_2 + x_4_9_3 = 1
 R277: x_4_7_4 + x_4_7_5 + x_4_7_6 + x_4_8_4 + x_4_8_5 + x_4_8_6 + x_4_9_4
   + x_4_9_5 + x_4_9_6 = 1
 R278: x_4_7_7 + x_4_7_8 + x_4_7_9 + x_4_8_7 + x_4_8_8 + x_4_8_9 + x_4_9_7
   + x_4_9_8 + x_4_9_9 = 1
 R279: x_5_1_1 + x_5_1_2 + x_5_1_3 + x_5_2_1 + x_5_2_2 + x_5_2_3 + x_5_3_1
   + x_5_3_2 + x_5_3_3 = 1
 R280: x_5_1_4 + x_5_1_5 + x_5_1_6 + x_5_2_4 + x_5_2_5 + x_5_2_6 + x_5_3_4
   + x_5_3_5 + x_5_3_6 = 1
 R281: x_5_1_7 + x_5_1_8 + x_5_1_9 + x_5_2_7 + x_5_2_8 + x_5_2_9 + x_5_3_7
   + x_5_3_8 + x_5_3_9 = 1
 R282: x_5_4_1 + x_5_4_2 + x_5_4_3 + x_5_5_1 + x_5_5_2 + x_5_5_3 + x_5_6_1
   + x_5_6_2 + x_5_6_3 = 1
 R283: x_5_4_4 + x_5_4_5 + x_5_4_6 + x_5_5_4 + x_5_5_5 + x_5_5_6 + x_5_6_4
   + x_5_6_5 + x_5_6_6 = 1
 R284: x_5_4_7 + x_5_4_8 + x_5_4_9 + x_5_5_7 + x_5_5_8 + x_5_5_9 + x_5_6_7
   + x_5_6_8 + x_5_6_9 = 1
 R285: x_5_7_1 + x_5_7_2 + x_5_7_3 + x_5_8_1 + x_5_8_2 + x_5_8_3 + x_5_9_1
   + x_5_9_2 + x_5_9_3 = 1
 R286: x_5_7_4 + x_5_7_5 + x_5_7_6 + x_5_8_4 + x_5_8_5 + x_5_8_6 + x_5_9_4
   + x_5_9_5 + x_5_9_6 = 1
 R287: x_5_7_7 + x_5_7_8 + x_5_7_9 + x_5_8_7 + x_5_8_8 + x_5_8_9 + x_5_9_7
   + x_5_9_8 + x_5_9_9 = 1
 R288: x_6_1_1 + x_6_1_2 + x_6_1_3 + x_6_2_1 + x_6_2_2 + x_6_2_3 + x_6_3_1
   + x_6_3_2 + x_6_3_3 = 1
 R289: x_6_1_4 + x_6_1_5 + x_6_1_6 + x_6_2_4 + x_6_2_5 + x_6_2_6 + x_6_3_4
   + x_6_3_5 + x_6_3_6 = 1
 R290: x_6_1_7 + x_6_1_8 + x_6_1_9 + x_6_2_7 + x_6_2_8 + x_6_2_9 + x_6_3_7
   + x_6_3_8 + x_6_3_9 = 1
 R291: x_6_4_1 + x_6_4_2 + x_6_4_3 + x_6_5_1 + x_6_5_2 + x_6_5_3 + x_6_6_1
   + x_6_6_2 + x_6_6_3 = 1
 R292: x_6_4_4 + x_6_4_5 + x_6_4_6 + x_6_5_4 + x_6_5_5 + x_6_5_6 + x_6_6_4
   + x_6_6_5 + x_6_6_6 = 1
 R293: x_6_4_7 + x_6_4_8 + x_6_4_9 + x_6_5_7 + x_6_5_8 + x_6_5_9 + x_6_6_7
   + x_6_6_8 + x_6_6_9 = 1
 R294: x_6_7_1 + x_6_7_2 + x_6_7_3 + x_6_8_1 + x_6_8_2 + x_6_8_3 + x_6_9_1
   + x_6_9_2 + x_6_9_3 = 1
 R295: x_6_7_4 + x_6_7_5 + x_6_7_6 + x_6_8_4 + x_6_8_5 + x_6_8_6 + x_6_9_4
   + x_6_9_5 + x_6_9_6 = 1
 R296: x_6_7_7 + x_6_7_8 + x_6_7_9 + x_6_8_7 + x_6_8_8 + x_6_8_9 + x_6_9_7
   + x_6_9_8 + x_6_9_9 = 1
 R297: x_7_1_1 + x_7_1_2 + x_7_1_3 + x_7_2_1 + x_7_2_2 + x_7_2_3 + x_7_3_1
   + x_7_3_2 + x_7_3_3 = 1
 R298: x_7_1_4 + x_7_1_5 + x_7_1_6 + x_7_2_4 + x_7_2_5 + x_7_2_6 + x_7_3_4
   + x_7_3_5 + x_7_3_6 = 1
 R299: x_7_1_7 + x_7_1_8 + x_7_1_9 + x_7_2_7 + x_7_2_8 + x_7_2_9 + x_7_3_7
   + x_7_3_8 + x_7_3_9 = 1
 R300: x_7_4_1 + x_7_4_2 + x_7_4_3 + x_7_5_1 + x_7_5_2 + x_7_5_3 + x_7_6_1
   + x_7_6_2 + x_7_6_3 = 1
 R301: x_7_4_4 + x_7_4_5 + x_7_4_6 + x_7_5_4 + x_7_5_5 + x_7_5_6 + x_7_6_4
   + x_7_6_5 + x_7_6_6 = 1
 R302: x_7_4_7 + x_7_4_8 + x_7_4_9 + x_7_5_7 + x_7_5_8 + x_7_5_9 + x_7_6_7
   + x_7_6_8 + x_7_6_9 = 1
 R303: x_7_7_1 + x_7_7_2 + x_7_7_3 + x_7_8_1 + x_7_8_2 + x_7_8_3 + x_7_9_1
   + x_7_9_2 + x_7_9_3 = 1
 R304: x_7_7_4 + x_7_7_5 + x_7_7_6 + x_7_8_4 + x_7_8_5 + x_7_8_6 + x_7_9_4
   + x_7_9_5 + x_7_9_6 = 1
 R305: x_7_7_7 + x_7_7_8 + x_7_7_9 + x_7_8_7 + x_7_8_8 + x_7_8_9 + x_7_9_7
   + x_7_9_8 + x_7_9_9 = 1
 R306: x_8_1_1 + x_8_1_2 + x_8_1_3 + x_8_2_1 + x_8_2_2 + x_8_2_3 + x_8_3_1
   + x_8_3_2 + x_8_3_3 = 1
 R307: x_8_1_4 + x_8_1_5 + x_8_1_6 + x_8_2_4 + x_8_2_5 + x_8_2_6 + x_8_3_4
   + x_8_3_5 + x_8_3_6 = 1
 R308: x_8_1_7 + x_8_1_8 + x_8_1_9 + x_8_2_7 + x_8_2_8 + x_8_2_9 + x_8_3_7
   + x_8_3_8 + x_8_3_9 = 1
 R309: x_8_4_1 + x_8_4_2 + x_8_4_3 + x_8_5_1 + x_8_5_2 + x_8_5_3 + x_8_6_1
   + x_8_6_2 + x_8_6_3 = 1
 R310: x_8_4_4 + x_8_4_5 + x_8_4_6 + x_8_5_4 + x_8_5_5 + x_8_5_6 + x_8_6_4
   + x_8_6_5 + x_8_6_6 = 1
 R311: x_8_4_7 + x_8_4_8 + x_8_4_9 + x_8_5_7 + x_8_5_8 + x_8_5_9 + x_8_6_7
   + x_8_6_8 + x_8_6_9 = 1
 R312: x_8_7_1 + x_8_7_2 + x_8_7_3 + x_8_8_1 + x_8_8_2 + x_8_8_3 + x_8_9_1
   + x_8_9_2 + x_8_9_3 = 1
 R313: x_8_7_4 + x_8_7_5 + x_8_7_6 + x_8_8_4 + x_8_8_5 + x_8_8_6 + x_8_9_4
   + x_8_9_5 + x_8_9_6 = 1
 R314: x_8_7_7 + x_8_7_8 + x_8_7_9 + x_8_8_7 + x_8_8_8 + x_8_8_9 + x_8_9_7
   + x_8_9_8 + x_8_9_9 = 1
 R315: x_9_1_1 + x_9_1_2 + x_9_1_3 + x_9_2_1 + x_9_2_2 + x_9_2_3 + x_9_3_1
   + x_9_3_2 + x_9_3_3 = 1
 R316: x_9_1_4 + x_9_1_5 + x_9_1_6 + x_9_2_4 + x_9_2_5 + x_9_2_6 + x_9_3_4
   + x_9_3_5 + x_9_3_6 = 1
 R317: x_9_1_7 + x_9_1_8 + x_9_1_9 + x_9_2_7 + x_9_2_8 + x_9_2_9 + x_9_3_7
   + x_9_3_8 + x_9_3_9 = 1
 R318: x_9_4_1 + x_9_4_2 + x_9_4_3 + x_9_5_1 + x_9_5_2 + x_9_5_3 + x_9_6_1
   + x_9_6_2 + x_9_6_3 = 1
 R319: x_9_4_4 + x_9_4_5 + x_9_4_6 + x_9_5_4 + x_9_5_5 + x_9_5_6 + x_9_6_4
   + x_9_6_5 + x_9_6_6 = 1
 R320: x_9_4_7 + x_9_4_8 + x_9_4_9 + x_9_5_7 + x_9_5_8 + x_9_5_9 + x_9_6_7
   + x_9_6_8 + x_9_6_9 = 1
 R321: x_9_7_1 + x_9_7_2 + x_9_7_3 + x_9_8_1 + x_9_8_2 + x_9_8_3 + x_9_9_1
   + x_9_9_2 + x_9_9_3 = 1
 R322: x_9_7_4 + x_9_7_5 + x_9_7_6 + x_9_8_4 + x_9_8_5 + x_9_8_6 + x_9_9_4
   + x_9_9_5 + x_9_9_6 = 1
 R323: x_9_7_7 + x_9_7_8 + x_9_7_9 + x_9_8_7 + x_9_8_8 + x_9_8_9 + x_9_9_7
   + x_9_9_8 + x_9_9_9 = 1
Bounds
Binaries
 x_1_1_1 x_1_1_2 x_1_1_3 x_1_1_4 x_1_1_5 x_1_1_6 x_1_1_7 x_1_1_8 x_1_1_9
 x_1_2_1 x_1_2_2 x_1_2_3 x_1_2_4 x_1_2_5 x_1_2_6 x_1_2_7 x_1_2_8 x_1_2_9
 x_1_3_1 x_1_3_2 x_1_3_3 x_1_3_4 x_1_3_5 x_1_3_6 x_1_3_7 x_1_3_8 x_1_3_9
 x_1_4_1 x_1_4_2 x_1_4_3 x_1_4_4 x_1_4_5 x_1_4_6 x_1_4_7 x_1_4_8 x_1_4_9
 x_1_5_1 x_1_5_2 x_1_5_3 x_1_5_4 x_1_5_5 x_1_5_6 x_1_5_7 x_1_5_8 x_1_5_9
 x_1_6_1 x_1_6_2 x_1_6_3 x_1_6_4 x_1_6_5 x_1_6_6 x_1_6_7 x_1_6_8 x_1_6_9
 x_1_7_1 x_1_7_2 x_1_7_3 x_1_7_4 x_1_7_5 x_1_7_6 x_1_7_7 x_1_7_8 x_1_7_9
 x_1_8_1 x_1_8_2 x_1_8_3 x_1_8_4 x_1_8_5 x_1_8_6 x_1_8_7 x_1_8_8 x_1_8_9
 x_1_9_1 x_1_9_2 x_1_9_3 x_1_9_4 x_1_9_5 x_1_9_6 x_1_9_7 x_1_9_8 x_1_9_9
 x_2_1_1 x_2_1_2 x_2_1_3 x_2_1_4 x_2_1_5 x_2_1_6 x_2_1_7 x_2_1_8 x_2_1_9
 x_2_2_1 x_2_2_2 x_2_2_3 x_2_2_4 x_2_2_5 x_2_2_6 x_2_2_7 x_2_2_8 x_2_2_9
 x_2_3_1 x_2_3_2 x_2_3_3 x_2_3_4 x_2_3_5 x_2_3_6 x_2_3_7 x_2_3_8 x_2_3_9
 x_2_4_1 x_2_4_2 x_2_4_3 x_2_4_4 x_2_4_5 x_2_4_6 x_2_4_7 x_2_4_8 x_2_4_9
 x_2_5_1 x_2_5_2 x_2_5_3 x_2_5_4 x_2_5_5 x_2_5_6 x_2_5_7 x_2_5_8 x_2_5_9
 x_2_6_1 x_2_6_2 x_2_6_3 x_2_6_4 x_2_6_5 x_2_6_6 x_2_6_7 x_2_6_8 x_2_6_9
 x_2_7_1 x_2_7_2 x_2_7_3 x_2_7_4 x_2_7_5 x_2_7_6 x_2_7_7 x_2_7_8 x_2_7_9
 x_2_8_1 x_2_8_2 x_2_8_3 x_2_8_4 x_2_8_5 x_2_8_6 x_2_8_7 x_2_8_8 x_2_8_9
 x_2_9_1 x_2_9_2 x_2_9_3 x_2_9_4 x_2_9_5 x_2_9_6 x_2_9_7 x_2_9_8 x_2_9_9
 x_3_1_1 x_3_1_2 x_3_1_3 x_3_1_4 x_3_1_5 x_3_1_6 x_3_1_7 x_3_1_8 x_3_1_9
 x_3_2_1 x_3_2_2 x_3_2_3 x_3_2_4 x_3_2_5 x_3_2_6 x_3_2_7 x_3_2_8 x_3_2_9
 x_3_3_1 x_3_3_2 x_3_3_3 x_3_3_4 x_3_3_5 x_3_3_6 x_3_3_7 x_3_3_8 x_3_3_9
 x_3_4_1 x_3_4_2 x_3_4_3 x_3_4_4 x_3_4_5 x_3_4_6 x_3_4_7 x_3_4_8 x_3_4_9
 x_3_5_1 x_3_5_2 x_3_5_3 x_3_5_4 x_3_5_5 x_3_5_6 x_3_5_7 x_3_5_8 x_3_5_9
 x_3_6_1 x_3_6_2 x_3_6_3 x_3_6_4 x_3_6_5 x_3_6_6 x_3_6_7 x_3_6_8 x_3_6_9
 x_3_7_1 x_3_7_2 x_3_7_3 x_3_7_4 x_3_7_5 x_3_7_6 x_3_7_7 x_3_7_8 x_3_7_9
 x_3_8_1 x_3_8_2 x_3_8_3 x_3_8_4 x_3_8_5 x_3_8_6 x_3_8_7 x_3_8_8 x_3_8_9
 x_3_9_1 x_3_9_2 x_3_9_3 x_3_9_4 x_3_9_5 x_3_9_6 x_3_9_7 x_3_9_8 x_3_9_9
 x_4_1_1 x_4_1_2 x_4_1_3 x_4_1_4 x_4_1_5 x_4_1_6 x_4_1_7 x_4_1_8 x_4_1_9
 x_4_2_1 x_4_2_2 x_4_2_3 x_4_2_4 x_4_2_5 x_4_2_6 x_4_2_7 x_4_2_8 x_4_2_9
 x_4_3_1 x_4_3_2 x_4_3_3 x_4_3_4 x_4_3_5 x_4_3_6 x_4_3_7 x_4_3_8 x_4_3_9
 x_4_4_1 x_4_4_2 x_4_4_3 x_4_4_4 x_4_4_5 x_4_4_6 x_4_4_7 x_4_4_8 x_4_4_9
 x_4_5_1 x_4_5_2 x_4_5_3 x_4_5_4 x_4_5_5 x_4_5_6 x_4_5_7 x_4_5_8 x_4_5_9
 x_4_6_1 x_4_6_2 x_4_6_3 x_4_6_4 x_4_6_5 x_4_6_6 x_4_6_7 x_4_6_8 x_4_6_9
 x_4_7_1 x_4_7_2 x_4_7_3 x_4_7_4 x_4_7_5 x_4_7_6 x_4_7_7 x_4_7_8 x_4_7_9
 x_4_8_1 x_4_8_2 x_4_8_3 x_4_8_4 x_4_8_5 x_4_8_6 x_4_8_7 x_4_8_8 x_4_8_9
 x_4_9_1 x_4_9_2 x_4_9_3 x_4_9_4 x_4_9_5 x_4_9_6 x_4_9_7 x_4_9_8 x_4_9_9
 x_5_1_1 x_5_1_2 x_5_1_3 x_5_1_4 x_5_1_5 x_5_1_6 x_5_1_7 x_5_1_8 x_5_1_9
 x_5_2_1 x_5_2_2 x_5_2_3 x_5_2_4 x_5_2_5 x_5_2_6 x_5_2_7 x_5_2_8 x_5_2_9
 x_5_3_1 x_5_3_2 x_5_3_3 x_5_3_4 x_5_3_5 x_5_3_6 x_5_3_7 x_5_3_8 x_5_3_9
 x_5_4_1 x_5_4_2 x_5_4_3 x_5_4_4 x_5_4_5 x_5_4_6 x_5_4_7 x_5_4_8 x_5_4_9
 x_5_5_1 x_5_5_2 x_5_5_3 x_5_5_4 x_5_5_5 x_5_5_6 x_5_5_7 x_5_5_8 x_5_5_9
 x_5_6_1 x_5_6_2 x_5_6_3 x_5_6_4 x_5_6_5 x_5_6_6 x_5_6_7 x_5_6_8 x_5_6_9
 x_5_7_1 x_5_7_2 x_5_7_3 x_5_7_4 x_5_7_5 x_5_7_6 x_5_7_7 x_5_7_8 x_5_7_9
 x_5_8_1 x_5_8_2 x_5_8_3 x_5_8_4 x_5_8_5 x_5_8_6 x_5_8_7 x_5_8_8 x_5_8_9
 x_5_9_1 x_5_9_2 x_5_9_3 x_5_9_4 x_5_9_5 x_5_9_6 x_5_9_7 x_5_9_8 x_5_9_9
 x_6_1_1 x_6_1_2 x_6_1_3 x_6_1_4 x_6_1_5 x_6_1_6 x_6_1_7 x_6_1_8 x_6_1_9
 x_6_2_1 x_6_2_2 x_6_2_3 x_6_2_4 x_6_2_5 x_6_2_6 x_6_2_7 x_6_2_8 x_6_2_9
 x_6_3_1 x_6_3_2 x_6_3_3 x_6_3_4 x_6_3_5 x_6_3_6 x_6_3_7 x_6_3_8 x_6_3_9
 x_6_4_1 x_6_4_2 x_6_4_3 x_6_4_4 x_6_4_5 x_6_4_6 x_6_4_7 x_6_4_8 x_6_4_9
 x_6_5_1 x_6_5_2 x_6_5_3 x_6_5_4 x_6_5_5 x_6_5_6 x_6_5_7 x_6_5_8 x_6_5_9
 x_6_6_1 x_6_6_2 x_6_6_3 x_6_6_4 x_6_6_5 x_6_6_6 x_6_6_7 x_6_6_8 x_6_6_9
 x_6_7_1 x_6_7_2 x_6_7_3 x_6_7_4 x_6_7_5 x_6_7_6 x_6_7_7 x_6_7_8 x_6_7_9
 x_6_8_1 x_6_8_2 x_6_8_3 x_6_8_4 x_6_8_5 x_6_8_6 x_6_8_7 x_6_8_8 x_6_8_9
 x_6_9_1 x_6_9_2 x_6_9_3 x_6_9_4 x_6_9_5 x_6_9_6 x_6_9_7 x_6_9_8 x_6_9_9
 x_7_1_1 x_7_1_2 x_7_1_3 x_7_1_4 x_7_1_5 x_7_1_6 x_7_1_7 x_7_1_8 x_7_1_9
 x_7_2_1 x_7_2_2 x_7_2_3 x_7_2_4 x_7_2_5 x_7_2_6 x_7_2_7 x_7_2_8 x_7_2_9
 x_7_3_1 x_7_3_2 x_7_3_3 x_7_3_4 x_7_3_5 x_7_3_6 x_7_3_7 x_7_3_8 x_7_3_9
 x_7_4_1 x_7_4_2 x_7_4_3 x_7_4_4 x_7_4_5 x_7_4_6 x_7_4_7 x_7_4_8 x_7_4_9
 x_7_5_1 x_7_5_2 x_7_5_3 x_7_5_4 x_7_5_5 x_7_5_6 x_7_5_7 x_7_5_8 x_7_5_9
 x_7_6_1 x_7_6_2 x_7_6_3 x_7_6_4 x_7_6_5 x_7_6_6 x_7_6_7 x_7_6_8 x_7_6_9
 x_7_7_1 x_7_7_2 x_7_7_3 x_7_7_4 x_7_7_5 x_7_7_6 x_7_7_7 x_7_7_8 x_7_7_9
 x_7_8_1 x_7_8_2 x_7_8_3 x_7_8_4 x_7_8_5 x_7_8_6 x_7_8_7 x_7_8_8 x_7_8_9
 x_7_9_1 x_7_9_2 x_7_9_3 x_7_9_4 x_7_9_5 x_7_9_6 x_7_9_7 x_7_9_8 x_7_9_9
 x_8_1_1 x_8_1_2 x_8_1_3 x_8_1_4 x_8_1_5 x_8_1_6 x_8_1_7 x_8_1_8 x_8_1_9
 x_8_2_1 x_8_2_2 x_8_2_3 x_8_2_4 x_8_2_5 x_8_2_6 x_8_2_7 x_8_2_8 x_8_2_9
 x_8_3_1 x_8_3_2 x_8_3_3 x_8_3_4 x_8_3_5 x_8_3_6 x_8_3_7 x_8_3_8 x_8_3_9
 x_8_4_1 x_8_4_2 x_8_4_3 x_8_4_4 x_8_4_5 x_8_4_6 x_8_4_7 x_8_4_8 x_8_4_9
 x_8_5_1 x_8_5_2 x_8_5_3 x_8_5_4 x_8_5_5 x_8_5_6 x_8_5_7 x_8_5_8 x_8_5_9
 x_8_6_1 x_8_6_2 x_8_6_3 x_8_6_4 x_8_6_5 x_8_6_6 x_8_6_7 x_8_6_8 x_8_6_9
 x_8_7_1 x_8_7_2 x_8_7_3 x_8_7_4 x_8_7_5 x_8_7_6 x_8_7_7 x_8_7_8 x_8_7_9
 x_8_8_1 x_8_8_2 x_8_8_3 x_8_8_4 x_8_8_5 x_8_8_6 x_8_8_7 x_8_8_8 x_8_8_9
 x_8_9_1 x_8_9_2 x_8_9_3 x_8_9_4 x_8_9_5 x_8_9_6 x_8_9_7 x_8_9_8 x_8_9_9
 x_9_1_1 x_9_1_2 x_9_1_3 x_9_1_4 x_9_1_5 x_9_1_6 x_9_1_7 x_9_1_8 x_9_1_9
 x_9_2_1 x_9_2_2 x_9_2_3 x_9_2_4 x_9_2_5 x_9_2_6 x_9_2_7 x_9_2_8 x_9_2_9
 x_9_3_1 x_9_3_2 x_9_3_3 x_9_3_4 x_9_3_5 x_9_3_6 x_9_3_7 x_9_3_8 x_9_3_9
 x_9_4_1 x_9_4_2 x_9_4_3 x_9_4_4 x_9_4_5 x_9_4_6 x_9_4_7 x_9_4_8 x_9_4_9
 x_9_5_1 x_9_5_2 x_9_5_3 x_9_5_4 x_9_5_5 x_9_5_6 x_9_5_7 x_9_5_8 x_9_5_9
 x_9_6_1 x_9_6_2 x_9_6_3 x_9_6_4 x_9_6_5 x_9_6_6 x_9_6_7 x_9_6_8 x_9_6_9
 x_9_7_1 x_9_7_2 x_9_7_3 x_9_7_4 x_9_7_5 x_9_7_6 x_9_7_7 x_9_7_8 x_9_7_9
 x_9_8_1 x_9_8_2 x_9_8_3 x_9_8_4 x_9_8_5 x_9_8_6 x_9_8_7 x_9_8_8 x_9_8_9
 x_9_9_1 x_9_9_2 x_9_9_3 x_9_9_4 x_9_9_5 x_9_9_6 x_9_9_7 x_9_9_8 x_9_9_9
End
